\ Model GAP
\ LP format - for model browsing. Use MPS format to capture full model detail.
Minimize
  26 x[0,0] + 35 x[0,1] + 13 x[0,2] + 21 x[0,3] + 21 x[0,4] + 12 x[0,5]
   + 29 x[0,6] + 19 x[0,7] + 30 x[0,8] + 50 x[0,9] + 11 x[0,10]
   + 46 x[0,11] + 34 x[0,12] + 14 x[0,13] + 29 x[0,14] + 30 x[0,15]
   + 34 x[0,16] + 28 x[0,17] + 21 x[0,18] + 29 x[0,19] + 16 x[0,20]
   + 15 x[0,21] + 10 x[0,22] + 14 x[0,23] + 33 x[0,24] + 19 x[0,25]
   + 30 x[0,26] + 38 x[0,27] + 14 x[0,28] + 42 x[0,29] + 20 x[0,30]
   + 17 x[0,31] + 47 x[0,32] + 35 x[0,33] + 13 x[0,34] + 21 x[0,35]
   + 10 x[0,36] + 25 x[0,37] + 17 x[0,38] + 41 x[0,39] + 29 x[0,40]
   + 24 x[0,41] + 26 x[0,42] + 36 x[0,43] + 26 x[0,44] + 20 x[0,45]
   + 19 x[0,46] + 42 x[0,47] + 40 x[0,48] + 49 x[0,49] + 24 x[0,50]
   + 16 x[0,51] + 35 x[0,52] + 10 x[0,53] + 46 x[0,54] + 42 x[0,55]
   + 21 x[0,56] + 50 x[0,57] + 29 x[0,58] + 34 x[0,59] + 13 x[0,60]
   + 37 x[0,61] + 16 x[0,62] + 41 x[0,63] + 41 x[0,64] + 10 x[0,65]
   + 23 x[0,66] + 17 x[0,67] + 41 x[0,68] + 36 x[0,69] + 45 x[0,70]
   + 40 x[0,71] + 15 x[0,72] + 31 x[0,73] + 16 x[0,74] + 33 x[0,75]
   + 24 x[0,76] + 35 x[0,77] + 41 x[0,78] + 15 x[0,79] + 26 x[0,80]
   + 44 x[0,81] + 15 x[0,82] + 45 x[0,83] + 27 x[0,84] + 19 x[0,85]
   + 46 x[0,86] + 18 x[0,87] + 32 x[0,88] + 41 x[0,89] + 42 x[0,90]
   + 26 x[0,91] + 25 x[0,92] + 43 x[0,93] + 15 x[0,94] + 20 x[0,95]
   + 12 x[0,96] + 12 x[0,97] + 50 x[0,98] + 18 x[0,99] + 24 x[1,0]
   + 43 x[1,1] + 25 x[1,2] + 36 x[1,3] + 39 x[1,4] + 49 x[1,5] + 14 x[1,6]
   + 42 x[1,7] + 40 x[1,8] + 16 x[1,9] + 50 x[1,10] + 43 x[1,11]
   + 38 x[1,12] + 30 x[1,13] + 40 x[1,14] + 25 x[1,15] + 18 x[1,16]
   + 31 x[1,17] + 32 x[1,18] + 15 x[1,19] + 14 x[1,20] + 35 x[1,21]
   + 35 x[1,22] + 17 x[1,23] + 38 x[1,24] + 30 x[1,25] + 17 x[1,26]
   + 34 x[1,27] + 50 x[1,28] + 21 x[1,29] + 13 x[1,30] + 37 x[1,31]
   + 16 x[1,32] + 28 x[1,33] + 49 x[1,34] + 27 x[1,35] + 32 x[1,36]
   + 24 x[1,37] + 45 x[1,38] + 30 x[1,39] + 33 x[1,40] + 32 x[1,41]
   + 10 x[1,42] + 31 x[1,43] + 45 x[1,44] + 31 x[1,45] + 14 x[1,46]
   + 27 x[1,47] + 16 x[1,48] + 27 x[1,49] + 41 x[1,50] + 40 x[1,51]
   + 45 x[1,52] + 44 x[1,53] + 50 x[1,54] + 14 x[1,55] + 19 x[1,56]
   + 41 x[1,57] + 36 x[1,58] + 21 x[1,59] + 43 x[1,60] + 25 x[1,61]
   + 30 x[1,62] + 42 x[1,63] + 20 x[1,64] + 48 x[1,65] + 17 x[1,66]
   + 34 x[1,67] + 12 x[1,68] + 35 x[1,69] + 46 x[1,70] + 39 x[1,71]
   + 23 x[1,72] + 18 x[1,73] + 27 x[1,74] + 28 x[1,75] + 19 x[1,76]
   + 41 x[1,77] + 12 x[1,78] + 39 x[1,79] + 12 x[1,80] + 13 x[1,81]
   + 42 x[1,82] + 39 x[1,83] + 42 x[1,84] + 50 x[1,85] + 41 x[1,86]
   + 19 x[1,87] + 42 x[1,88] + 26 x[1,89] + 21 x[1,90] + 17 x[1,91]
   + 46 x[1,92] + 23 x[1,93] + 48 x[1,94] + 40 x[1,95] + 17 x[1,96]
   + 23 x[1,97] + 49 x[1,98] + 10 x[1,99] + 40 x[2,0] + 45 x[2,1]
   + 27 x[2,2] + 33 x[2,3] + 16 x[2,4] + 19 x[2,5] + 13 x[2,6] + 20 x[2,7]
   + 19 x[2,8] + 21 x[2,9] + 17 x[2,10] + 48 x[2,11] + 24 x[2,12]
   + 28 x[2,13] + 18 x[2,14] + 19 x[2,15] + 49 x[2,16] + 39 x[2,17]
   + 38 x[2,18] + 35 x[2,19] + 44 x[2,20] + 45 x[2,21] + 12 x[2,22]
   + 39 x[2,23] + 39 x[2,24] + 21 x[2,25] + 49 x[2,26] + 38 x[2,27]
   + 15 x[2,28] + 26 x[2,29] + 32 x[2,30] + 12 x[2,31] + 19 x[2,32]
   + 27 x[2,33] + 38 x[2,34] + 12 x[2,35] + 40 x[2,36] + 29 x[2,37]
   + 17 x[2,38] + 11 x[2,39] + 24 x[2,40] + 23 x[2,41] + 50 x[2,42]
   + 40 x[2,43] + 10 x[2,44] + 16 x[2,45] + 47 x[2,46] + 45 x[2,47]
   + 31 x[2,48] + 12 x[2,49] + 23 x[2,50] + 20 x[2,51] + 25 x[2,52]
   + 23 x[2,53] + 27 x[2,54] + 40 x[2,55] + 44 x[2,56] + 34 x[2,57]
   + 48 x[2,58] + 43 x[2,59] + 48 x[2,60] + 37 x[2,61] + 31 x[2,62]
   + 34 x[2,63] + 19 x[2,64] + 45 x[2,65] + 35 x[2,66] + 17 x[2,67]
   + 27 x[2,68] + 30 x[2,69] + 21 x[2,70] + 27 x[2,71] + 17 x[2,72]
   + 25 x[2,73] + 42 x[2,74] + 40 x[2,75] + 35 x[2,76] + 34 x[2,77]
   + 19 x[2,78] + 39 x[2,79] + 39 x[2,80] + 14 x[2,81] + 13 x[2,82]
   + 17 x[2,83] + 10 x[2,84] + 40 x[2,85] + 13 x[2,86] + 34 x[2,87]
   + 46 x[2,88] + 46 x[2,89] + 16 x[2,90] + 17 x[2,91] + 49 x[2,92]
   + 23 x[2,93] + 45 x[2,94] + 49 x[2,95] + 32 x[2,96] + 49 x[2,97]
   + 12 x[2,98] + 47 x[2,99] + 14 x[3,0] + 31 x[3,1] + 22 x[3,2]
   + 29 x[3,3] + 28 x[3,4] + 17 x[3,5] + 40 x[3,6] + 31 x[3,7] + 24 x[3,8]
   + 42 x[3,9] + 39 x[3,10] + 23 x[3,11] + 47 x[3,12] + 22 x[3,13]
   + 17 x[3,14] + 22 x[3,15] + 48 x[3,16] + 40 x[3,17] + 14 x[3,18]
   + 11 x[3,19] + 36 x[3,20] + 50 x[3,21] + 37 x[3,22] + 44 x[3,23]
   + 16 x[3,24] + 23 x[3,25] + 43 x[3,26] + 47 x[3,27] + 12 x[3,28]
   + 38 x[3,29] + 37 x[3,30] + 18 x[3,31] + 22 x[3,32] + 34 x[3,33]
   + 30 x[3,34] + 38 x[3,35] + 48 x[3,36] + 35 x[3,37] + 45 x[3,38]
   + 37 x[3,39] + 50 x[3,40] + 32 x[3,41] + 24 x[3,42] + 40 x[3,43]
   + 32 x[3,44] + 19 x[3,45] + 40 x[3,46] + 32 x[3,47] + 49 x[3,48]
   + 36 x[3,49] + 47 x[3,50] + 24 x[3,51] + 47 x[3,52] + 46 x[3,53]
   + 27 x[3,54] + 46 x[3,55] + 15 x[3,56] + 22 x[3,57] + 11 x[3,58]
   + 39 x[3,59] + 40 x[3,60] + 22 x[3,61] + 50 x[3,62] + 49 x[3,63]
   + 12 x[3,64] + 27 x[3,65] + 28 x[3,66] + 14 x[3,67] + 32 x[3,68]
   + 45 x[3,69] + 10 x[3,70] + 37 x[3,71] + 46 x[3,72] + 27 x[3,73]
   + 28 x[3,74] + 28 x[3,75] + 15 x[3,76] + 38 x[3,77] + 38 x[3,78]
   + 44 x[3,79] + 29 x[3,80] + 31 x[3,81] + 21 x[3,82] + 20 x[3,83]
   + 36 x[3,84] + 45 x[3,85] + 18 x[3,86] + 22 x[3,87] + 10 x[3,88]
   + 37 x[3,89] + 30 x[3,90] + 14 x[3,91] + 39 x[3,92] + 19 x[3,93]
   + 24 x[3,94] + 12 x[3,95] + 14 x[3,96] + 26 x[3,97] + 13 x[3,98]
   + 15 x[3,99] + 19 x[4,0] + 20 x[4,1] + 45 x[4,2] + 11 x[4,3] + 10 x[4,4]
   + 35 x[4,5] + 37 x[4,6] + 25 x[4,7] + 23 x[4,8] + 41 x[4,9] + 44 x[4,10]
   + 10 x[4,11] + 27 x[4,12] + 18 x[4,13] + 22 x[4,14] + 49 x[4,15]
   + 45 x[4,16] + 26 x[4,17] + 34 x[4,18] + 12 x[4,19] + 33 x[4,20]
   + 30 x[4,21] + 30 x[4,22] + 20 x[4,23] + 15 x[4,24] + 13 x[4,25]
   + 49 x[4,26] + 23 x[4,27] + 38 x[4,28] + 38 x[4,29] + 37 x[4,30]
   + 41 x[4,31] + 12 x[4,32] + 26 x[4,33] + 50 x[4,34] + 20 x[4,35]
   + 47 x[4,36] + 13 x[4,37] + 48 x[4,38] + 50 x[4,39] + 44 x[4,40]
   + 38 x[4,41] + 42 x[4,42] + 46 x[4,43] + 27 x[4,44] + 16 x[4,45]
   + 27 x[4,46] + 16 x[4,47] + 38 x[4,48] + 16 x[4,49] + 13 x[4,50]
   + 14 x[4,51] + 16 x[4,52] + 34 x[4,53] + 39 x[4,54] + 44 x[4,55]
   + 19 x[4,56] + 41 x[4,57] + 47 x[4,58] + 34 x[4,59] + 39 x[4,60]
   + 17 x[4,61] + 44 x[4,62] + 24 x[4,63] + 19 x[4,64] + 14 x[4,65]
   + 40 x[4,66] + 38 x[4,67] + 40 x[4,68] + 31 x[4,69] + 37 x[4,70]
   + 16 x[4,71] + 29 x[4,72] + 50 x[4,73] + 50 x[4,74] + 22 x[4,75]
   + 36 x[4,76] + 36 x[4,77] + 29 x[4,78] + 49 x[4,79] + 23 x[4,80]
   + 13 x[4,81] + 49 x[4,82] + 25 x[4,83] + 40 x[4,84] + 30 x[4,85]
   + 16 x[4,86] + 50 x[4,87] + 27 x[4,88] + 25 x[4,89] + 11 x[4,90]
   + 36 x[4,91] + 36 x[4,92] + 28 x[4,93] + 33 x[4,94] + 43 x[4,95]
   + 50 x[4,96] + 24 x[4,97] + 24 x[4,98] + 43 x[4,99]
Subject To
 task[0]: x[0,0] + x[1,0] + x[2,0] + x[3,0] + x[4,0] = 1
 task[1]: x[0,1] + x[1,1] + x[2,1] + x[3,1] + x[4,1] = 1
 task[2]: x[0,2] + x[1,2] + x[2,2] + x[3,2] + x[4,2] = 1
 task[3]: x[0,3] + x[1,3] + x[2,3] + x[3,3] + x[4,3] = 1
 task[4]: x[0,4] + x[1,4] + x[2,4] + x[3,4] + x[4,4] = 1
 task[5]: x[0,5] + x[1,5] + x[2,5] + x[3,5] + x[4,5] = 1
 task[6]: x[0,6] + x[1,6] + x[2,6] + x[3,6] + x[4,6] = 1
 task[7]: x[0,7] + x[1,7] + x[2,7] + x[3,7] + x[4,7] = 1
 task[8]: x[0,8] + x[1,8] + x[2,8] + x[3,8] + x[4,8] = 1
 task[9]: x[0,9] + x[1,9] + x[2,9] + x[3,9] + x[4,9] = 1
 task[10]: x[0,10] + x[1,10] + x[2,10] + x[3,10] + x[4,10] = 1
 task[11]: x[0,11] + x[1,11] + x[2,11] + x[3,11] + x[4,11] = 1
 task[12]: x[0,12] + x[1,12] + x[2,12] + x[3,12] + x[4,12] = 1
 task[13]: x[0,13] + x[1,13] + x[2,13] + x[3,13] + x[4,13] = 1
 task[14]: x[0,14] + x[1,14] + x[2,14] + x[3,14] + x[4,14] = 1
 task[15]: x[0,15] + x[1,15] + x[2,15] + x[3,15] + x[4,15] = 1
 task[16]: x[0,16] + x[1,16] + x[2,16] + x[3,16] + x[4,16] = 1
 task[17]: x[0,17] + x[1,17] + x[2,17] + x[3,17] + x[4,17] = 1
 task[18]: x[0,18] + x[1,18] + x[2,18] + x[3,18] + x[4,18] = 1
 task[19]: x[0,19] + x[1,19] + x[2,19] + x[3,19] + x[4,19] = 1
 task[20]: x[0,20] + x[1,20] + x[2,20] + x[3,20] + x[4,20] = 1
 task[21]: x[0,21] + x[1,21] + x[2,21] + x[3,21] + x[4,21] = 1
 task[22]: x[0,22] + x[1,22] + x[2,22] + x[3,22] + x[4,22] = 1
 task[23]: x[0,23] + x[1,23] + x[2,23] + x[3,23] + x[4,23] = 1
 task[24]: x[0,24] + x[1,24] + x[2,24] + x[3,24] + x[4,24] = 1
 task[25]: x[0,25] + x[1,25] + x[2,25] + x[3,25] + x[4,25] = 1
 task[26]: x[0,26] + x[1,26] + x[2,26] + x[3,26] + x[4,26] = 1
 task[27]: x[0,27] + x[1,27] + x[2,27] + x[3,27] + x[4,27] = 1
 task[28]: x[0,28] + x[1,28] + x[2,28] + x[3,28] + x[4,28] = 1
 task[29]: x[0,29] + x[1,29] + x[2,29] + x[3,29] + x[4,29] = 1
 task[30]: x[0,30] + x[1,30] + x[2,30] + x[3,30] + x[4,30] = 1
 task[31]: x[0,31] + x[1,31] + x[2,31] + x[3,31] + x[4,31] = 1
 task[32]: x[0,32] + x[1,32] + x[2,32] + x[3,32] + x[4,32] = 1
 task[33]: x[0,33] + x[1,33] + x[2,33] + x[3,33] + x[4,33] = 1
 task[34]: x[0,34] + x[1,34] + x[2,34] + x[3,34] + x[4,34] = 1
 task[35]: x[0,35] + x[1,35] + x[2,35] + x[3,35] + x[4,35] = 1
 task[36]: x[0,36] + x[1,36] + x[2,36] + x[3,36] + x[4,36] = 1
 task[37]: x[0,37] + x[1,37] + x[2,37] + x[3,37] + x[4,37] = 1
 task[38]: x[0,38] + x[1,38] + x[2,38] + x[3,38] + x[4,38] = 1
 task[39]: x[0,39] + x[1,39] + x[2,39] + x[3,39] + x[4,39] = 1
 task[40]: x[0,40] + x[1,40] + x[2,40] + x[3,40] + x[4,40] = 1
 task[41]: x[0,41] + x[1,41] + x[2,41] + x[3,41] + x[4,41] = 1
 task[42]: x[0,42] + x[1,42] + x[2,42] + x[3,42] + x[4,42] = 1
 task[43]: x[0,43] + x[1,43] + x[2,43] + x[3,43] + x[4,43] = 1
 task[44]: x[0,44] + x[1,44] + x[2,44] + x[3,44] + x[4,44] = 1
 task[45]: x[0,45] + x[1,45] + x[2,45] + x[3,45] + x[4,45] = 1
 task[46]: x[0,46] + x[1,46] + x[2,46] + x[3,46] + x[4,46] = 1
 task[47]: x[0,47] + x[1,47] + x[2,47] + x[3,47] + x[4,47] = 1
 task[48]: x[0,48] + x[1,48] + x[2,48] + x[3,48] + x[4,48] = 1
 task[49]: x[0,49] + x[1,49] + x[2,49] + x[3,49] + x[4,49] = 1
 task[50]: x[0,50] + x[1,50] + x[2,50] + x[3,50] + x[4,50] = 1
 task[51]: x[0,51] + x[1,51] + x[2,51] + x[3,51] + x[4,51] = 1
 task[52]: x[0,52] + x[1,52] + x[2,52] + x[3,52] + x[4,52] = 1
 task[53]: x[0,53] + x[1,53] + x[2,53] + x[3,53] + x[4,53] = 1
 task[54]: x[0,54] + x[1,54] + x[2,54] + x[3,54] + x[4,54] = 1
 task[55]: x[0,55] + x[1,55] + x[2,55] + x[3,55] + x[4,55] = 1
 task[56]: x[0,56] + x[1,56] + x[2,56] + x[3,56] + x[4,56] = 1
 task[57]: x[0,57] + x[1,57] + x[2,57] + x[3,57] + x[4,57] = 1
 task[58]: x[0,58] + x[1,58] + x[2,58] + x[3,58] + x[4,58] = 1
 task[59]: x[0,59] + x[1,59] + x[2,59] + x[3,59] + x[4,59] = 1
 task[60]: x[0,60] + x[1,60] + x[2,60] + x[3,60] + x[4,60] = 1
 task[61]: x[0,61] + x[1,61] + x[2,61] + x[3,61] + x[4,61] = 1
 task[62]: x[0,62] + x[1,62] + x[2,62] + x[3,62] + x[4,62] = 1
 task[63]: x[0,63] + x[1,63] + x[2,63] + x[3,63] + x[4,63] = 1
 task[64]: x[0,64] + x[1,64] + x[2,64] + x[3,64] + x[4,64] = 1
 task[65]: x[0,65] + x[1,65] + x[2,65] + x[3,65] + x[4,65] = 1
 task[66]: x[0,66] + x[1,66] + x[2,66] + x[3,66] + x[4,66] = 1
 task[67]: x[0,67] + x[1,67] + x[2,67] + x[3,67] + x[4,67] = 1
 task[68]: x[0,68] + x[1,68] + x[2,68] + x[3,68] + x[4,68] = 1
 task[69]: x[0,69] + x[1,69] + x[2,69] + x[3,69] + x[4,69] = 1
 task[70]: x[0,70] + x[1,70] + x[2,70] + x[3,70] + x[4,70] = 1
 task[71]: x[0,71] + x[1,71] + x[2,71] + x[3,71] + x[4,71] = 1
 task[72]: x[0,72] + x[1,72] + x[2,72] + x[3,72] + x[4,72] = 1
 task[73]: x[0,73] + x[1,73] + x[2,73] + x[3,73] + x[4,73] = 1
 task[74]: x[0,74] + x[1,74] + x[2,74] + x[3,74] + x[4,74] = 1
 task[75]: x[0,75] + x[1,75] + x[2,75] + x[3,75] + x[4,75] = 1
 task[76]: x[0,76] + x[1,76] + x[2,76] + x[3,76] + x[4,76] = 1
 task[77]: x[0,77] + x[1,77] + x[2,77] + x[3,77] + x[4,77] = 1
 task[78]: x[0,78] + x[1,78] + x[2,78] + x[3,78] + x[4,78] = 1
 task[79]: x[0,79] + x[1,79] + x[2,79] + x[3,79] + x[4,79] = 1
 task[80]: x[0,80] + x[1,80] + x[2,80] + x[3,80] + x[4,80] = 1
 task[81]: x[0,81] + x[1,81] + x[2,81] + x[3,81] + x[4,81] = 1
 task[82]: x[0,82] + x[1,82] + x[2,82] + x[3,82] + x[4,82] = 1
 task[83]: x[0,83] + x[1,83] + x[2,83] + x[3,83] + x[4,83] = 1
 task[84]: x[0,84] + x[1,84] + x[2,84] + x[3,84] + x[4,84] = 1
 task[85]: x[0,85] + x[1,85] + x[2,85] + x[3,85] + x[4,85] = 1
 task[86]: x[0,86] + x[1,86] + x[2,86] + x[3,86] + x[4,86] = 1
 task[87]: x[0,87] + x[1,87] + x[2,87] + x[3,87] + x[4,87] = 1
 task[88]: x[0,88] + x[1,88] + x[2,88] + x[3,88] + x[4,88] = 1
 task[89]: x[0,89] + x[1,89] + x[2,89] + x[3,89] + x[4,89] = 1
 task[90]: x[0,90] + x[1,90] + x[2,90] + x[3,90] + x[4,90] = 1
 task[91]: x[0,91] + x[1,91] + x[2,91] + x[3,91] + x[4,91] = 1
 task[92]: x[0,92] + x[1,92] + x[2,92] + x[3,92] + x[4,92] = 1
 task[93]: x[0,93] + x[1,93] + x[2,93] + x[3,93] + x[4,93] = 1
 task[94]: x[0,94] + x[1,94] + x[2,94] + x[3,94] + x[4,94] = 1
 task[95]: x[0,95] + x[1,95] + x[2,95] + x[3,95] + x[4,95] = 1
 task[96]: x[0,96] + x[1,96] + x[2,96] + x[3,96] + x[4,96] = 1
 task[97]: x[0,97] + x[1,97] + x[2,97] + x[3,97] + x[4,97] = 1
 task[98]: x[0,98] + x[1,98] + x[2,98] + x[3,98] + x[4,98] = 1
 task[99]: x[0,99] + x[1,99] + x[2,99] + x[3,99] + x[4,99] = 1
 capacity[0]: 7 x[0,0] + 16 x[0,1] + 18 x[0,2] + 15 x[0,3] + 17 x[0,4]
   + 10 x[0,5] + 17 x[0,6] + 11 x[0,7] + 19 x[0,8] + 6 x[0,9] + 5 x[0,10]
   + 19 x[0,11] + 21 x[0,12] + 19 x[0,13] + 23 x[0,14] + 12 x[0,15]
   + 7 x[0,16] + 5 x[0,17] + 21 x[0,18] + 20 x[0,19] + 23 x[0,20]
   + 12 x[0,21] + 22 x[0,22] + 6 x[0,23] + 14 x[0,24] + 17 x[0,25]
   + 24 x[0,26] + 25 x[0,27] + 22 x[0,28] + 8 x[0,29] + 13 x[0,30]
   + 7 x[0,31] + 24 x[0,32] + 11 x[0,33] + 8 x[0,34] + 22 x[0,35]
   + 15 x[0,36] + 24 x[0,37] + 15 x[0,38] + 18 x[0,39] + 23 x[0,40]
   + 11 x[0,41] + 17 x[0,42] + 16 x[0,43] + 6 x[0,44] + 21 x[0,45]
   + 21 x[0,46] + 9 x[0,47] + 24 x[0,48] + 9 x[0,49] + 22 x[0,50]
   + 9 x[0,51] + 25 x[0,52] + 6 x[0,53] + 8 x[0,54] + 8 x[0,55]
   + 16 x[0,56] + 12 x[0,57] + 24 x[0,58] + 6 x[0,59] + 12 x[0,60]
   + 13 x[0,61] + 18 x[0,62] + 18 x[0,63] + 8 x[0,64] + 20 x[0,65]
   + 22 x[0,66] + 5 x[0,67] + 15 x[0,68] + 13 x[0,69] + 9 x[0,70]
   + 11 x[0,71] + 11 x[0,72] + 11 x[0,73] + 8 x[0,74] + 7 x[0,75]
   + 5 x[0,76] + 14 x[0,77] + 19 x[0,78] + 12 x[0,79] + 17 x[0,80]
   + 9 x[0,81] + 16 x[0,82] + 18 x[0,83] + 12 x[0,84] + 6 x[0,85]
   + 10 x[0,86] + 5 x[0,87] + 18 x[0,88] + 21 x[0,89] + 24 x[0,90]
   + 9 x[0,91] + 9 x[0,92] + 19 x[0,93] + 5 x[0,94] + 8 x[0,95]
   + 18 x[0,96] + 8 x[0,97] + 25 x[0,98] + 21 x[0,99] <= 209
 capacity[1]: 9 x[1,0] + 17 x[1,1] + 13 x[1,2] + 18 x[1,3] + 7 x[1,4]
   + 14 x[1,5] + 22 x[1,6] + 16 x[1,7] + 6 x[1,8] + 10 x[1,9] + 13 x[1,10]
   + 15 x[1,11] + 10 x[1,12] + 25 x[1,13] + 12 x[1,14] + 13 x[1,15]
   + 18 x[1,16] + 15 x[1,17] + 19 x[1,18] + 14 x[1,19] + 17 x[1,20]
   + 25 x[1,21] + 19 x[1,22] + 24 x[1,23] + 11 x[1,24] + 10 x[1,25]
   + 19 x[1,26] + 13 x[1,27] + 20 x[1,28] + 23 x[1,29] + 9 x[1,30]
   + 13 x[1,31] + 13 x[1,32] + 17 x[1,33] + 14 x[1,34] + 22 x[1,35]
   + 24 x[1,36] + 19 x[1,37] + 25 x[1,38] + 17 x[1,39] + 15 x[1,40]
   + 5 x[1,41] + 12 x[1,42] + 10 x[1,43] + 19 x[1,44] + 23 x[1,45]
   + 7 x[1,46] + 17 x[1,47] + 19 x[1,48] + 15 x[1,49] + 21 x[1,50]
   + 6 x[1,51] + 25 x[1,52] + 20 x[1,53] + 10 x[1,54] + 7 x[1,55]
   + 15 x[1,56] + 16 x[1,57] + 17 x[1,58] + 23 x[1,59] + 17 x[1,60]
   + 19 x[1,61] + 18 x[1,62] + 16 x[1,63] + 22 x[1,64] + 20 x[1,65]
   + 19 x[1,66] + 7 x[1,67] + 8 x[1,68] + 19 x[1,69] + 12 x[1,70]
   + 13 x[1,71] + 21 x[1,72] + 20 x[1,73] + 25 x[1,74] + 9 x[1,75]
   + 9 x[1,76] + 11 x[1,77] + 7 x[1,78] + 15 x[1,79] + 12 x[1,80]
   + 15 x[1,81] + 20 x[1,82] + 18 x[1,83] + 22 x[1,84] + 18 x[1,85]
   + 5 x[1,86] + 11 x[1,87] + 22 x[1,88] + 7 x[1,89] + 16 x[1,90]
   + 9 x[1,91] + 21 x[1,92] + 10 x[1,93] + 18 x[1,94] + 11 x[1,95]
   + 15 x[1,96] + 17 x[1,97] + 10 x[1,98] + 20 x[1,99] <= 209
 capacity[2]: 18 x[2,0] + 24 x[2,1] + 6 x[2,2] + 18 x[2,3] + 16 x[2,4]
   + 18 x[2,5] + 15 x[2,6] + 23 x[2,7] + 19 x[2,8] + 9 x[2,9] + 21 x[2,10]
   + 7 x[2,11] + 17 x[2,12] + 9 x[2,13] + 19 x[2,14] + 22 x[2,15]
   + 23 x[2,16] + 5 x[2,17] + 21 x[2,18] + 9 x[2,19] + 14 x[2,20]
   + 21 x[2,21] + 9 x[2,22] + 23 x[2,23] + 15 x[2,24] + 24 x[2,25]
   + 22 x[2,26] + 12 x[2,27] + 12 x[2,28] + 24 x[2,29] + 6 x[2,30]
   + 20 x[2,31] + 23 x[2,32] + 15 x[2,33] + 15 x[2,34] + 14 x[2,35]
   + 12 x[2,36] + 9 x[2,37] + 24 x[2,38] + 20 x[2,39] + 19 x[2,40]
   + 9 x[2,41] + 7 x[2,42] + 20 x[2,43] + 13 x[2,44] + 14 x[2,45]
   + 14 x[2,46] + 10 x[2,47] + 13 x[2,48] + 21 x[2,49] + 18 x[2,50]
   + 12 x[2,51] + 16 x[2,52] + 19 x[2,53] + 5 x[2,54] + 14 x[2,55]
   + 17 x[2,56] + 20 x[2,57] + 13 x[2,58] + 22 x[2,59] + 16 x[2,60]
   + 19 x[2,61] + 5 x[2,62] + 11 x[2,63] + 25 x[2,64] + 10 x[2,65]
   + 13 x[2,66] + 13 x[2,67] + 6 x[2,68] + 6 x[2,69] + 9 x[2,70]
   + 13 x[2,71] + 10 x[2,72] + 22 x[2,73] + 10 x[2,74] + 9 x[2,75]
   + 5 x[2,76] + 13 x[2,77] + 21 x[2,78] + 16 x[2,79] + 11 x[2,80]
   + 20 x[2,81] + 5 x[2,82] + 13 x[2,83] + 12 x[2,84] + 5 x[2,85]
   + 11 x[2,86] + 11 x[2,87] + 14 x[2,88] + 14 x[2,89] + 18 x[2,90]
   + 8 x[2,91] + 9 x[2,92] + 8 x[2,93] + 20 x[2,94] + 15 x[2,95]
   + 17 x[2,96] + 21 x[2,97] + 25 x[2,98] + 15 x[2,99] <= 209
 capacity[3]: 14 x[3,0] + 7 x[3,1] + 7 x[3,2] + 9 x[3,3] + 9 x[3,4]
   + 7 x[3,5] + 23 x[3,6] + 21 x[3,7] + 19 x[3,8] + 11 x[3,9] + 10 x[3,10]
   + 9 x[3,11] + 5 x[3,12] + 11 x[3,13] + 19 x[3,14] + 20 x[3,15]
   + 12 x[3,16] + 12 x[3,17] + 10 x[3,18] + 25 x[3,19] + 6 x[3,20]
   + 17 x[3,21] + 12 x[3,22] + 16 x[3,23] + 19 x[3,24] + 20 x[3,25]
   + 19 x[3,26] + 12 x[3,27] + 5 x[3,28] + 14 x[3,29] + 17 x[3,30]
   + 11 x[3,31] + 15 x[3,32] + 14 x[3,33] + 9 x[3,34] + 18 x[3,35]
   + 20 x[3,36] + 25 x[3,37] + 21 x[3,38] + 11 x[3,39] + 18 x[3,40]
   + 20 x[3,41] + 13 x[3,42] + 23 x[3,43] + 18 x[3,44] + 17 x[3,45]
   + 21 x[3,46] + 6 x[3,47] + 5 x[3,48] + 12 x[3,49] + 24 x[3,50]
   + 22 x[3,51] + 6 x[3,52] + 12 x[3,53] + 17 x[3,54] + 11 x[3,55]
   + 12 x[3,56] + 5 x[3,57] + 11 x[3,58] + 25 x[3,59] + 6 x[3,60]
   + 8 x[3,61] + 7 x[3,62] + 21 x[3,63] + 9 x[3,64] + 13 x[3,65]
   + 25 x[3,66] + 5 x[3,67] + 20 x[3,68] + 24 x[3,69] + 11 x[3,70]
   + 25 x[3,71] + 14 x[3,72] + 14 x[3,73] + 13 x[3,74] + 5 x[3,75]
   + 22 x[3,76] + 15 x[3,77] + 22 x[3,78] + 18 x[3,79] + 23 x[3,80]
   + 5 x[3,81] + 7 x[3,82] + 9 x[3,83] + 17 x[3,84] + 18 x[3,85]
   + 23 x[3,86] + 16 x[3,87] + 19 x[3,88] + 24 x[3,89] + 21 x[3,90]
   + 11 x[3,91] + 10 x[3,92] + 20 x[3,93] + 19 x[3,94] + 14 x[3,95]
   + 19 x[3,96] + 16 x[3,97] + 17 x[3,98] + 22 x[3,99] <= 209
 capacity[4]: 21 x[4,0] + 11 x[4,1] + 6 x[4,2] + 14 x[4,3] + 16 x[4,4]
   + 12 x[4,5] + 12 x[4,6] + 6 x[4,7] + 22 x[4,8] + 18 x[4,9] + 16 x[4,10]
   + 8 x[4,11] + 18 x[4,12] + 13 x[4,13] + 16 x[4,14] + 16 x[4,15]
   + 13 x[4,16] + 8 x[4,17] + 23 x[4,18] + 18 x[4,19] + 11 x[4,20]
   + 15 x[4,21] + 6 x[4,22] + 11 x[4,23] + 17 x[4,24] + 17 x[4,25]
   + 20 x[4,26] + 8 x[4,27] + 9 x[4,28] + 17 x[4,29] + 11 x[4,30]
   + 11 x[4,31] + 22 x[4,32] + 6 x[4,33] + 24 x[4,34] + 24 x[4,35]
   + 17 x[4,36] + 20 x[4,37] + 11 x[4,38] + 16 x[4,39] + 15 x[4,40]
   + 11 x[4,41] + 9 x[4,42] + 21 x[4,43] + 6 x[4,44] + 24 x[4,45]
   + 21 x[4,46] + 6 x[4,47] + 25 x[4,48] + 9 x[4,49] + 21 x[4,50]
   + 15 x[4,51] + 21 x[4,52] + 6 x[4,53] + 8 x[4,54] + 23 x[4,55]
   + 21 x[4,56] + 23 x[4,57] + 7 x[4,58] + 12 x[4,59] + 7 x[4,60]
   + 17 x[4,61] + 25 x[4,62] + 21 x[4,63] + 18 x[4,64] + 5 x[4,65]
   + 11 x[4,66] + 6 x[4,67] + 10 x[4,68] + 24 x[4,69] + 25 x[4,70]
   + 22 x[4,71] + 11 x[4,72] + 16 x[4,73] + 9 x[4,74] + 7 x[4,75]
   + 5 x[4,76] + 8 x[4,77] + 9 x[4,78] + 7 x[4,79] + 8 x[4,80] + 24 x[4,81]
   + 6 x[4,82] + 15 x[4,83] + 24 x[4,84] + 7 x[4,85] + 19 x[4,86]
   + 25 x[4,87] + 5 x[4,88] + 16 x[4,89] + 6 x[4,90] + 23 x[4,91]
   + 20 x[4,92] + 18 x[4,93] + 15 x[4,94] + 15 x[4,95] + 14 x[4,96]
   + 15 x[4,97] + 20 x[4,98] + 25 x[4,99] <= 209
Bounds
 x[0,0] <= 1
 x[0,1] <= 1
 x[0,2] <= 1
 x[0,3] <= 1
 x[0,4] <= 1
 x[0,5] <= 1
 x[0,6] <= 1
 x[0,7] <= 1
 x[0,8] <= 1
 x[0,9] <= 1
 x[0,10] <= 1
 x[0,11] <= 1
 x[0,12] <= 1
 x[0,13] <= 1
 x[0,14] <= 1
 x[0,15] <= 1
 x[0,16] <= 1
 x[0,17] <= 1
 x[0,18] <= 1
 x[0,19] <= 1
 x[0,20] <= 1
 x[0,21] <= 1
 x[0,22] <= 1
 x[0,23] <= 1
 x[0,24] <= 1
 x[0,25] <= 1
 x[0,26] <= 1
 x[0,27] <= 1
 x[0,28] <= 1
 x[0,29] <= 1
 x[0,30] <= 1
 x[0,31] <= 1
 x[0,32] <= 1
 x[0,33] <= 1
 x[0,34] <= 1
 x[0,35] <= 1
 x[0,36] <= 1
 x[0,37] <= 1
 x[0,38] <= 1
 x[0,39] <= 1
 x[0,40] <= 1
 x[0,41] <= 1
 x[0,42] <= 1
 x[0,43] <= 1
 x[0,44] <= 1
 x[0,45] <= 1
 x[0,46] <= 1
 x[0,47] <= 1
 x[0,48] <= 1
 x[0,49] <= 1
 x[0,50] <= 1
 x[0,51] <= 1
 x[0,52] <= 1
 x[0,53] <= 1
 x[0,54] <= 1
 x[0,55] <= 1
 x[0,56] <= 1
 x[0,57] <= 1
 x[0,58] <= 1
 x[0,59] <= 1
 x[0,60] <= 1
 x[0,61] <= 1
 x[0,62] <= 1
 x[0,63] <= 1
 x[0,64] <= 1
 x[0,65] <= 1
 x[0,66] <= 1
 x[0,67] <= 1
 x[0,68] <= 1
 x[0,69] <= 1
 x[0,70] <= 1
 x[0,71] <= 1
 x[0,72] <= 1
 x[0,73] <= 1
 x[0,74] <= 1
 x[0,75] <= 1
 x[0,76] <= 1
 x[0,77] <= 1
 x[0,78] <= 1
 x[0,79] <= 1
 x[0,80] <= 1
 x[0,81] <= 1
 x[0,82] <= 1
 x[0,83] <= 1
 x[0,84] <= 1
 x[0,85] <= 1
 x[0,86] <= 1
 x[0,87] <= 1
 x[0,88] <= 1
 x[0,89] <= 1
 x[0,90] <= 1
 x[0,91] <= 1
 x[0,92] <= 1
 x[0,93] <= 1
 x[0,94] <= 1
 x[0,95] <= 1
 x[0,96] <= 1
 x[0,97] <= 1
 x[0,98] <= 1
 x[0,99] <= 1
 x[1,0] <= 1
 x[1,1] <= 1
 x[1,2] <= 1
 x[1,3] <= 1
 x[1,4] <= 1
 x[1,5] <= 1
 x[1,6] <= 1
 x[1,7] <= 1
 x[1,8] <= 1
 x[1,9] <= 1
 x[1,10] <= 1
 x[1,11] <= 1
 x[1,12] <= 1
 x[1,13] <= 1
 x[1,14] <= 1
 x[1,15] <= 1
 x[1,16] <= 1
 x[1,17] <= 1
 x[1,18] <= 1
 x[1,19] <= 1
 x[1,20] <= 1
 x[1,21] <= 1
 x[1,22] <= 1
 x[1,23] <= 1
 x[1,24] <= 1
 x[1,25] <= 1
 x[1,26] <= 1
 x[1,27] <= 1
 x[1,28] <= 1
 x[1,29] <= 1
 x[1,30] <= 1
 x[1,31] <= 1
 x[1,32] <= 1
 x[1,33] <= 1
 x[1,34] <= 1
 x[1,35] <= 1
 x[1,36] <= 1
 x[1,37] <= 1
 x[1,38] <= 1
 x[1,39] <= 1
 x[1,40] <= 1
 x[1,41] <= 1
 x[1,42] <= 1
 x[1,43] <= 1
 x[1,44] <= 1
 x[1,45] <= 1
 x[1,46] <= 1
 x[1,47] <= 1
 x[1,48] <= 1
 x[1,49] <= 1
 x[1,50] <= 1
 x[1,51] <= 1
 x[1,52] <= 1
 x[1,53] <= 1
 x[1,54] <= 1
 x[1,55] <= 1
 x[1,56] <= 1
 x[1,57] <= 1
 x[1,58] <= 1
 x[1,59] <= 1
 x[1,60] <= 1
 x[1,61] <= 1
 x[1,62] <= 1
 x[1,63] <= 1
 x[1,64] <= 1
 x[1,65] <= 1
 x[1,66] <= 1
 x[1,67] <= 1
 x[1,68] <= 1
 x[1,69] <= 1
 x[1,70] <= 1
 x[1,71] <= 1
 x[1,72] <= 1
 x[1,73] <= 1
 x[1,74] <= 1
 x[1,75] <= 1
 x[1,76] <= 1
 x[1,77] <= 1
 x[1,78] <= 1
 x[1,79] <= 1
 x[1,80] <= 1
 x[1,81] <= 1
 x[1,82] <= 1
 x[1,83] <= 1
 x[1,84] <= 1
 x[1,85] <= 1
 x[1,86] <= 1
 x[1,87] <= 1
 x[1,88] <= 1
 x[1,89] <= 1
 x[1,90] <= 1
 x[1,91] <= 1
 x[1,92] <= 1
 x[1,93] <= 1
 x[1,94] <= 1
 x[1,95] <= 1
 x[1,96] <= 1
 x[1,97] <= 1
 x[1,98] <= 1
 x[1,99] <= 1
 x[2,0] <= 1
 x[2,1] <= 1
 x[2,2] <= 1
 x[2,3] <= 1
 x[2,4] <= 1
 x[2,5] <= 1
 x[2,6] <= 1
 x[2,7] <= 1
 x[2,8] <= 1
 x[2,9] <= 1
 x[2,10] <= 1
 x[2,11] <= 1
 x[2,12] <= 1
 x[2,13] <= 1
 x[2,14] <= 1
 x[2,15] <= 1
 x[2,16] <= 1
 x[2,17] <= 1
 x[2,18] <= 1
 x[2,19] <= 1
 x[2,20] <= 1
 x[2,21] <= 1
 x[2,22] <= 1
 x[2,23] <= 1
 x[2,24] <= 1
 x[2,25] <= 1
 x[2,26] <= 1
 x[2,27] <= 1
 x[2,28] <= 1
 x[2,29] <= 1
 x[2,30] <= 1
 x[2,31] <= 1
 x[2,32] <= 1
 x[2,33] <= 1
 x[2,34] <= 1
 x[2,35] <= 1
 x[2,36] <= 1
 x[2,37] <= 1
 x[2,38] <= 1
 x[2,39] <= 1
 x[2,40] <= 1
 x[2,41] <= 1
 x[2,42] <= 1
 x[2,43] <= 1
 x[2,44] <= 1
 x[2,45] <= 1
 x[2,46] <= 1
 x[2,47] <= 1
 x[2,48] <= 1
 x[2,49] <= 1
 x[2,50] <= 1
 x[2,51] <= 1
 x[2,52] <= 1
 x[2,53] <= 1
 x[2,54] <= 1
 x[2,55] <= 1
 x[2,56] <= 1
 x[2,57] <= 1
 x[2,58] <= 1
 x[2,59] <= 1
 x[2,60] <= 1
 x[2,61] <= 1
 x[2,62] <= 1
 x[2,63] <= 1
 x[2,64] <= 1
 x[2,65] <= 1
 x[2,66] <= 1
 x[2,67] <= 1
 x[2,68] <= 1
 x[2,69] <= 1
 x[2,70] <= 1
 x[2,71] <= 1
 x[2,72] <= 1
 x[2,73] <= 1
 x[2,74] <= 1
 x[2,75] <= 1
 x[2,76] <= 1
 x[2,77] <= 1
 x[2,78] <= 1
 x[2,79] <= 1
 x[2,80] <= 1
 x[2,81] <= 1
 x[2,82] <= 1
 x[2,83] <= 1
 x[2,84] <= 1
 x[2,85] <= 1
 x[2,86] <= 1
 x[2,87] <= 1
 x[2,88] <= 1
 x[2,89] <= 1
 x[2,90] <= 1
 x[2,91] <= 1
 x[2,92] <= 1
 x[2,93] <= 1
 x[2,94] <= 1
 x[2,95] <= 1
 x[2,96] <= 1
 x[2,97] <= 1
 x[2,98] <= 1
 x[2,99] <= 1
 x[3,0] <= 1
 x[3,1] <= 1
 x[3,2] <= 1
 x[3,3] <= 1
 x[3,4] <= 1
 x[3,5] <= 1
 x[3,6] <= 1
 x[3,7] <= 1
 x[3,8] <= 1
 x[3,9] <= 1
 x[3,10] <= 1
 x[3,11] <= 1
 x[3,12] <= 1
 x[3,13] <= 1
 x[3,14] <= 1
 x[3,15] <= 1
 x[3,16] <= 1
 x[3,17] <= 1
 x[3,18] <= 1
 x[3,19] <= 1
 x[3,20] <= 1
 x[3,21] <= 1
 x[3,22] <= 1
 x[3,23] <= 1
 x[3,24] <= 1
 x[3,25] <= 1
 x[3,26] <= 1
 x[3,27] <= 1
 x[3,28] <= 1
 x[3,29] <= 1
 x[3,30] <= 1
 x[3,31] <= 1
 x[3,32] <= 1
 x[3,33] <= 1
 x[3,34] <= 1
 x[3,35] <= 1
 x[3,36] <= 1
 x[3,37] <= 1
 x[3,38] <= 1
 x[3,39] <= 1
 x[3,40] <= 1
 x[3,41] <= 1
 x[3,42] <= 1
 x[3,43] <= 1
 x[3,44] <= 1
 x[3,45] <= 1
 x[3,46] <= 1
 x[3,47] <= 1
 x[3,48] <= 1
 x[3,49] <= 1
 x[3,50] <= 1
 x[3,51] <= 1
 x[3,52] <= 1
 x[3,53] <= 1
 x[3,54] <= 1
 x[3,55] <= 1
 x[3,56] <= 1
 x[3,57] <= 1
 x[3,58] <= 1
 x[3,59] <= 1
 x[3,60] <= 1
 x[3,61] <= 1
 x[3,62] <= 1
 x[3,63] <= 1
 x[3,64] <= 1
 x[3,65] <= 1
 x[3,66] <= 1
 x[3,67] <= 1
 x[3,68] <= 1
 x[3,69] <= 1
 x[3,70] <= 1
 x[3,71] <= 1
 x[3,72] <= 1
 x[3,73] <= 1
 x[3,74] <= 1
 x[3,75] <= 1
 x[3,76] <= 1
 x[3,77] <= 1
 x[3,78] <= 1
 x[3,79] <= 1
 x[3,80] <= 1
 x[3,81] <= 1
 x[3,82] <= 1
 x[3,83] <= 1
 x[3,84] <= 1
 x[3,85] <= 1
 x[3,86] <= 1
 x[3,87] <= 1
 x[3,88] <= 1
 x[3,89] <= 1
 x[3,90] <= 1
 x[3,91] <= 1
 x[3,92] <= 1
 x[3,93] <= 1
 x[3,94] <= 1
 x[3,95] <= 1
 x[3,96] <= 1
 x[3,97] <= 1
 x[3,98] <= 1
 x[3,99] <= 1
 x[4,0] <= 1
 x[4,1] <= 1
 x[4,2] <= 1
 x[4,3] <= 1
 x[4,4] <= 1
 x[4,5] <= 1
 x[4,6] <= 1
 x[4,7] <= 1
 x[4,8] <= 1
 x[4,9] <= 1
 x[4,10] <= 1
 x[4,11] <= 1
 x[4,12] <= 1
 x[4,13] <= 1
 x[4,14] <= 1
 x[4,15] <= 1
 x[4,16] <= 1
 x[4,17] <= 1
 x[4,18] <= 1
 x[4,19] <= 1
 x[4,20] <= 1
 x[4,21] <= 1
 x[4,22] <= 1
 x[4,23] <= 1
 x[4,24] <= 1
 x[4,25] <= 1
 x[4,26] <= 1
 x[4,27] <= 1
 x[4,28] <= 1
 x[4,29] <= 1
 x[4,30] <= 1
 x[4,31] <= 1
 x[4,32] <= 1
 x[4,33] <= 1
 x[4,34] <= 1
 x[4,35] <= 1
 x[4,36] <= 1
 x[4,37] <= 1
 x[4,38] <= 1
 x[4,39] <= 1
 x[4,40] <= 1
 x[4,41] <= 1
 x[4,42] <= 1
 x[4,43] <= 1
 x[4,44] <= 1
 x[4,45] <= 1
 x[4,46] <= 1
 x[4,47] <= 1
 x[4,48] <= 1
 x[4,49] <= 1
 x[4,50] <= 1
 x[4,51] <= 1
 x[4,52] <= 1
 x[4,53] <= 1
 x[4,54] <= 1
 x[4,55] <= 1
 x[4,56] <= 1
 x[4,57] <= 1
 x[4,58] <= 1
 x[4,59] <= 1
 x[4,60] <= 1
 x[4,61] <= 1
 x[4,62] <= 1
 x[4,63] <= 1
 x[4,64] <= 1
 x[4,65] <= 1
 x[4,66] <= 1
 x[4,67] <= 1
 x[4,68] <= 1
 x[4,69] <= 1
 x[4,70] <= 1
 x[4,71] <= 1
 x[4,72] <= 1
 x[4,73] <= 1
 x[4,74] <= 1
 x[4,75] <= 1
 x[4,76] <= 1
 x[4,77] <= 1
 x[4,78] <= 1
 x[4,79] <= 1
 x[4,80] <= 1
 x[4,81] <= 1
 x[4,82] <= 1
 x[4,83] <= 1
 x[4,84] <= 1
 x[4,85] <= 1
 x[4,86] <= 1
 x[4,87] <= 1
 x[4,88] <= 1
 x[4,89] <= 1
 x[4,90] <= 1
 x[4,91] <= 1
 x[4,92] <= 1
 x[4,93] <= 1
 x[4,94] <= 1
 x[4,95] <= 1
 x[4,96] <= 1
 x[4,97] <= 1
 x[4,98] <= 1
 x[4,99] <= 1
End
